TCS_Benchmarks/redos_fix/corpus1_output_distinct_2479_2478_4_0.smt2
(set-logic QF_S)
(declare-const x String)
(assert (str.in.re x (re.inter  (re.++ (re.* (re.range "\u{30}" "\u{39}") ) (re.+  (re.union  (re.++  (str.to.re "\u{73}") (re.++  (str.to.re "\u{65}")  (str.to.re "\u{63}"))) (re.union  (re.++  (str.to.re "\u{68}") (re.++  (str.to.re "\u{6f}") (re.++  (str.to.re "\u{75}")  (str.to.re "\u{72}")))) (re.union  (re.++  (str.to.re "\u{64}") (re.++  (str.to.re "\u{61}")  (str.to.re "\u{79}"))) (re.union  (re.++  (str.to.re "\u{77}") (re.++  (str.to.re "\u{65}") (re.++  (str.to.re "\u{65}")  (str.to.re "\u{6b}")))) (re.union  (re.++  (str.to.re "\u{6d}") (re.++  (str.to.re "\u{6f}") (re.++  (str.to.re "\u{6e}") (re.++  (str.to.re "\u{74}")  (str.to.re "\u{68}")))))  (re.++  (str.to.re "\u{79}") (re.++  (str.to.re "\u{65}") (re.++  (str.to.re "\u{61}")  (str.to.re "\u{72}"))))))))) ))  (re.++ (re.* (re.range "\u{30}" "\u{39}") ) (re.++  (re.++ (re.opt (re.union (re.range "\u{00}" "\u{09}") (re.range "\u{0b}" "\u{0c}") (re.range "\u{0e}" "\u{84}") (re.range "\u{86}" "\u{ff}")) ) (re.++ (re.+ (re.range "\u{30}" "\u{39}") ) (re.union (re.range "\u{00}" "\u{09}") (re.range "\u{0b}" "\u{0c}") (re.range "\u{0e}" "\u{84}") (re.range "\u{86}" "\u{ff}")))) (re.+  (re.union  (re.++  (str.to.re "\u{73}") (re.++  (str.to.re "\u{65}")  (str.to.re "\u{63}"))) (re.union  (re.++  (str.to.re "\u{68}") (re.++  (str.to.re "\u{6f}") (re.++  (str.to.re "\u{75}")  (str.to.re "\u{72}")))) (re.union  (re.++  (str.to.re "\u{64}") (re.++  (str.to.re "\u{61}")  (str.to.re "\u{79}"))) (re.union  (re.++  (str.to.re "\u{77}") (re.++  (str.to.re "\u{65}") (re.++  (str.to.re "\u{65}")  (str.to.re "\u{6b}")))) (re.union  (re.++  (str.to.re "\u{6d}") (re.++  (str.to.re "\u{6f}") (re.++  (str.to.re "\u{6e}") (re.++  (str.to.re "\u{74}")  (str.to.re "\u{68}")))))  (re.++  (str.to.re "\u{79}") (re.++  (str.to.re "\u{65}") (re.++  (str.to.re "\u{61}")  (str.to.re "\u{72}"))))))))) ))) )))
(check-sat)
(get-model)