TCS_Benchmarks/redos_fix/corpus1_output_distinct_2479_2478_4_0.txt
(\d*)((sec|hour|day|week|month|year)+)
(\d*)(.?\d+.)((sec|hour|day|week|month|year)+)